Maximize
F - ff - gg

Subject to
F - f1 - f2 - f3 - f4 = 0
f1 - 30X17 - 30X23 - 10X67 - 10X164 = 0
f2 - 15.0Y17 - 15.0Y23 - 5.0Y67 - 5.0Y164 = 0
f3 = 0
f4 = 0

ff - 0.020040s17 - 0.020040s23 - 0.020040s67 - 0.020040s164 
- 0.020040t17 - 0.020040t23 - 0.020040t67 - 0.020040t164 


= 0
gg - 2.477112Y17 - 2.509828Y23 - 2.325002Y67 - 2.487006Y164 

= 0

n1 - X17 - X23 - X67 - X164 = 0
n2 - Y17 - Y23 - Y67 - Y164 = 0
n3 = 0
n4 = 0

X17 + Y17 <= 1
X23 + Y23 <= 1
X67 + Y67 <= 1
X164 + Y164 <= 1



x27x17x1 + x27x67x1 + x27x164x1 
+ y27y17y1 + y27y67y1 + y27y164y1 
<= 1
x69x17x1 + x69x67x1 + x69x164x1 
+ y69y17y1 + y69y67y1 + y69y164y1 
<= 1
x185x17x1 + x185x67x1 + x185x164x1 
+ y185y17y1 + y185y67y1 + y185y164y1 
<= 1
x58x17x1 + x58x67x1 + x58x164x1 
+ y58y17y1 + y58y67y1 + y58y164y1 
<= 1
x74x17x1 + x74x67x1 + x74x164x1 
+ y74y17y1 + y74y67y1 + y74y164y1 
<= 1
x2x17x1 + x2x67x1 + x2x164x1 
+ y2y17y1 + y2y67y1 + y2y164y1 
<= 1





x185x17x2 + x185x67x2 
+ y185y17y2 + y185y67y2 
<= 1
x58x17x2 + x58x67x2 
+ y58y17y2 + y58y67y2 
<= 1
x74x17x2 + x74x67x2 
+ y74y17y2 + y74y67y2 
<= 1

x43x17x2 + x43x67x2 
+ y43y17y2 + y43y67y2 
<= 2

x124x17x2 + x124x67x2 
+ y124y17y2 + y124y67y2 
<= 1
x27x23x3 
+ y27y23y3 
<= 1
x69x23x3 
+ y69y23y3 
<= 1



x2x23x3 
+ y2y23y3 
<= 1

x160x23x3 
+ y160y23y3 
<= 2
x124x23x3 
+ y124y23y3 
<= 1
x27x17x1 + x27x67x1 + x27x164x1 

<= 1
x69x17x1 + x69x67x1 + x69x164x1 

<= 1
x185x17x1 + x185x67x1 + x185x164x1 

<= 1
x58x17x1 + x58x67x1 + x58x164x1 

<= 1
x74x17x1 + x74x67x1 + x74x164x1 

<= 1
x2x17x1 + x2x67x1 + x2x164x1 

<= 1





x185x17x2 + x185x67x2 

<= 1
x58x17x2 + x58x67x2 

<= 1
x74x17x2 + x74x67x2 

<= 1

x43x17x2 + x43x67x2 

<= 2

x124x17x2 + x124x67x2 

<= 1
x27x23x3 

<= 1
x69x23x3 

<= 1



x2x23x3 

<= 1

x160x23x3 

<= 2
x124x23x3 

<= 1
x27x17x1 + x27x67x1 + x27x164x1 

<= 1
x69x17x1 + x69x67x1 + x69x164x1 

<= 1
x185x17x1 + x185x67x1 + x185x164x1 

<= 1
x58x17x1 + x58x67x1 + x58x164x1 

<= 1
x74x17x1 + x74x67x1 + x74x164x1 

<= 1
x2x17x1 + x2x67x1 + x2x164x1 

<= 1





x185x17x2 + x185x67x2 

<= 1
x58x17x2 + x58x67x2 

<= 1
x74x17x2 + x74x67x2 

<= 1

x43x17x2 + x43x67x2 

<= 2

x124x17x2 + x124x67x2 

<= 1
x27x23x3 

<= 1
x69x23x3 

<= 1



x2x23x3 

<= 1

x160x23x3 

<= 2
x124x23x3 

<= 1
x27x17x1 + x69x17x1 + x185x17x1 + x58x17x1 + x74x17x1 + x2x17x1 + x164x17x1 
+ y27y17y1 + y69y17y1 + y185y17y1 + y58y17y1 + y74y17y1 + y2y17y1 + y164y17y1 
= 0
x185x17x2 + x58x17x2 + x74x17x2 + x43x17x2 + x124x17x2 
+ y185y17y2 + y58y17y2 + y74y17y2 + y43y17y2 + y124y17y2 
= 0

x27x23x3 + x69x23x3 + x2x23x3 + x160x23x3 + x124x23x3 
+ y27y23y3 + y69y23y3 + y2y23y3 + y160y23y3 + y124y23y3 
= 0

x27x67x1 + x69x67x1 + x185x67x1 + x58x67x1 + x74x67x1 + x2x67x1 + x164x67x1 
+ y27y67y1 + y69y67y1 + y185y67y1 + y58y67y1 + y74y67y1 + y2y67y1 + y164y67y1 
= 0
x185x67x2 + x58x67x2 + x74x67x2 + x43x67x2 + x124x67x2 
+ y185y67y2 + y58y67y2 + y74y67y2 + y43y67y2 + y124y67y2 
= 0

x27x164x1 + x69x164x1 + x185x164x1 + x58x164x1 + x74x164x1 + x2x164x1 
+ y27y164y1 + y69y164y1 + y185y164y1 + y58y164y1 + y74y164y1 + y2y164y1 
- x164x17x1 - x164x67x1 
- y164y17y1 - y164y67y1 - y164y0y1
= 0


x27x17x1 + x69x17x1 + x185x17x1 + x58x17x1 + x74x17x1 + x2x17x1 + x164x17x1 
= 0
x185x17x2 + x58x17x2 + x74x17x2 + x43x17x2 + x124x17x2 
= 0

x27x23x3 + x69x23x3 + x2x23x3 + x160x23x3 + x124x23x3 
= 0

x27x67x1 + x69x67x1 + x185x67x1 + x58x67x1 + x74x67x1 + x2x67x1 + x164x67x1 
= 0
x185x67x2 + x58x67x2 + x74x67x2 + x43x67x2 + x124x67x2 
= 0

x27x164x1 + x69x164x1 + x185x164x1 + x58x164x1 + x74x164x1 + x2x164x1 
- x164x17x1 - x164x67x1 
= 0


x27x17x1 + x69x17x1 + x185x17x1 + x58x17x1 + x74x17x1 + x2x17x1 + x164x17x1 
= 0
x185x17x2 + x58x17x2 + x74x17x2 + x43x17x2 + x124x17x2 
= 0

x27x23x3 + x69x23x3 + x2x23x3 + x160x23x3 + x124x23x3 
= 0

x27x67x1 + x69x67x1 + x185x67x1 + x58x67x1 + x74x67x1 + x2x67x1 + x164x67x1 
= 0
x185x67x2 + x58x67x2 + x74x67x2 + x43x67x2 + x124x67x2 
= 0

x27x164x1 + x69x164x1 + x185x164x1 + x58x164x1 + x74x164x1 + x2x164x1 
- x164x17x1 - x164x67x1 
= 0


1X17 - x27x17x1 - x69x17x1 - x185x17x1 - x58x17x1 - x74x17x1 - x2x17x1 - x164x17x1 = 0
1X17 - x185x17x2 - x58x17x2 - x74x17x2 - x43x17x2 - x124x17x2 = 0
2X23 - x27x23x3 - x69x23x3 - x2x23x3 - x160x23x3 - x124x23x3 = 0
1X67 - x27x67x1 - x69x67x1 - x185x67x1 - x58x67x1 - x74x67x1 - x2x67x1 - x164x67x1 = 0
1X67 - x185x67x2 - x58x67x2 - x74x67x2 - x43x67x2 - x124x67x2 = 0
2X164 - x27x164x1 - x69x164x1 - x185x164x1 - x58x164x1 - x74x164x1 - x2x164x1 = 0

1Y17 - y27y17y1 - y69y17y1 - y185y17y1 - y58y17y1 - y74y17y1 - y2y17y1 - y164y17y1 = 0
1Y17 - y185y17y2 - y58y17y2 - y74y17y2 - y43y17y2 - y124y17y2 = 0
2Y23 - y27y23y3 - y69y23y3 - y2y23y3 - y160y23y3 - y124y23y3 = 0
1Y67 - y27y67y1 - y69y67y1 - y185y67y1 - y58y67y1 - y74y67y1 - y2y67y1 - y164y67y1 = 0
1Y67 - y185y67y2 - y58y67y2 - y74y67y2 - y43y67y2 - y124y67y2 = 0
2Y164 - y27y164y1 - y69y164y1 - y185y164y1 - y58y164y1 - y74y164y1 - y2y164y1 = 0




s27 - s17 + 6.536050a27a17a1 <= 5.38
s27 - s23 + 6.542509a27a23a3 <= 5.38
s27 - s67 + 6.559671a27a67a1 <= 5.38
s27 - s164 + 6.558938a27a164a1 <= 5.38
s69 - s17 + 6.526585a69a17a1 <= 5.40
s69 - s23 + 6.532820a69a23a3 <= 5.40
s69 - s67 + 6.553322a69a67a1 <= 5.40
s69 - s164 + 6.550146a69a164a1 <= 5.40
s185 - s17 + 6.606026a185a17a1 <= 5.35
s185 - s17 + 6.606026a185a17a2 <= 5.35
s185 - s67 + 6.622255a185a67a1 <= 5.35
s185 - s67 + 6.622255a185a67a2 <= 5.35
s185 - s164 + 6.626669a185a164a1 <= 5.35
s58 - s17 + 7.211013a58a17a1 <= 5.69
s58 - s17 + 7.211013a58a17a2 <= 5.69
s58 - s67 + 7.220696a58a67a1 <= 5.69
s58 - s67 + 7.220696a58a67a2 <= 5.69
s58 - s164 + 7.202986a58a164a1 <= 5.69
s74 - s17 + 7.174596a74a17a1 <= 5.67
s74 - s17 + 7.174596a74a17a2 <= 5.67
s74 - s67 + 7.184470a74a67a1 <= 5.67
s74 - s67 + 7.184470a74a67a2 <= 5.67
s74 - s164 + 7.166689a74a164a1 <= 5.67
s2 - s17 + 6.970999a2a17a1 <= 5.47
s2 - s23 + 6.965536a2a23a3 <= 5.47
s2 - s67 + 6.980236a2a67a1 <= 5.47
s2 - s164 + 6.962669a2a164a1 <= 5.47
s43 - s17 + 7.048282a43a17a2 <= 5.54
s43 - s67 + 7.056617a43a67a2 <= 5.54
s160 - s23 + 7.146571a160a23a3 <= 5.66
s124 - s17 + 6.328954a124a17a2 <= 4.81
s124 - s23 + 6.323264a124a23a3 <= 4.81
s124 - s67 + 6.336032a124a67a2 <= 4.81
s164 - s17 + 7.214037a164a17a1 <= 6.19
s164 - s67 + 7.211082a164a67a1 <= 6.19

t27 - t17 + 6.536050b27b17b1 <= 5.38
t27 - t23 + 6.542509b27b23b3 <= 5.38
t27 - t67 + 6.559671b27b67b1 <= 5.38
t27 - t164 + 6.558938b27b164b1 <= 5.38
t69 - t17 + 6.526585b69b17b1 <= 5.40
t69 - t23 + 6.532820b69b23b3 <= 5.40
t69 - t67 + 6.553322b69b67b1 <= 5.40
t69 - t164 + 6.550146b69b164b1 <= 5.40
t185 - t17 + 6.606026b185b17b1 <= 5.35
t185 - t17 + 6.606026b185b17b2 <= 5.35
t185 - t67 + 6.622255b185b67b1 <= 5.35
t185 - t67 + 6.622255b185b67b2 <= 5.35
t185 - t164 + 6.626669b185b164b1 <= 5.35
t58 - t17 + 7.211013b58b17b1 <= 5.69
t58 - t17 + 7.211013b58b17b2 <= 5.69
t58 - t67 + 7.220696b58b67b1 <= 5.69
t58 - t67 + 7.220696b58b67b2 <= 5.69
t58 - t164 + 7.202986b58b164b1 <= 5.69
t74 - t17 + 7.174596b74b17b1 <= 5.67
t74 - t17 + 7.174596b74b17b2 <= 5.67
t74 - t67 + 7.184470b74b67b1 <= 5.67
t74 - t67 + 7.184470b74b67b2 <= 5.67
t74 - t164 + 7.166689b74b164b1 <= 5.67
t2 - t17 + 6.970999b2b17b1 <= 5.47
t2 - t23 + 6.965536b2b23b3 <= 5.47
t2 - t67 + 6.980236b2b67b1 <= 5.47
t2 - t164 + 6.962669b2b164b1 <= 5.47
t43 - t17 + 7.048282b43b17b2 <= 5.54
t43 - t67 + 7.056617b43b67b2 <= 5.54
t160 - t23 + 7.146571b160b23b3 <= 5.66
t124 - t17 + 6.328954b124b17b2 <= 4.81
t124 - t23 + 6.323264b124b23b3 <= 4.81
t124 - t67 + 6.336032b124b67b2 <= 4.81
t164 - t17 + 7.214037b164b17b1 <= 6.19
t164 - t67 + 7.211082b164b67b1 <= 6.19



x27x17x1 + x69x17x1 + x185x17x1 + x58x17x1 + x74x17x1 + x2x17x1 + x164x17x1 + x185x17x2 + x58x17x2 + x74x17x2 + x43x17x2 + x124x17x2 

- 2w17 <= 0

x27x23x3 + x69x23x3 + x2x23x3 + x160x23x3 + x124x23x3 

- 2w23 <= 0

x27x67x1 + x69x67x1 + x185x67x1 + x58x67x1 + x74x67x1 + x2x67x1 + x164x67x1 + x185x67x2 + x58x67x2 + x74x67x2 + x43x67x2 + x124x67x2 

- 2w67 <= 0

x27x164x1 + x69x164x1 + x185x164x1 + x58x164x1 + x74x164x1 + x2x164x1 
- x164x17x1 - x164x67x1 
- 2w164 <= 0

x27x17x1 + x69x17x1 + x185x17x1 + x58x17x1 + x74x17x1 + x2x17x1 + x164x17x1 + x185x17x2 + x58x17x2 + x74x17x2 + x43x17x2 + x124x17x2 

- w17 >= 0

x27x23x3 + x69x23x3 + x2x23x3 + x160x23x3 + x124x23x3 

- w23 >= 0

x27x67x1 + x69x67x1 + x185x67x1 + x58x67x1 + x74x67x1 + x2x67x1 + x164x67x1 + x185x67x2 + x58x67x2 + x74x67x2 + x43x67x2 + x124x67x2 

- w67 >= 0

x27x164x1 + x69x164x1 + x185x164x1 + x58x164x1 + x74x164x1 + x2x164x1 
- x164x17x1 - x164x67x1 
- w164 >= 0

s27 - t27 + 5.38w27 <= 5.38
s69 - t69 + 5.40w69 <= 5.40
s185 - t185 + 5.35w185 <= 5.35
s58 - t58 + 5.69w58 <= 5.69
s74 - t74 + 5.67w74 <= 5.67
s2 - t2 + 5.47w2 <= 5.47
s43 - t43 + 5.54w43 <= 5.54
s160 - t160 + 5.66w160 <= 5.66
s124 - t124 + 4.81w124 <= 4.81
s17 - t17 + 6.26w17 <= 6.26
s23 - t23 + 6.22w23 <= 6.22
s67 - t67 + 6.28w67 <= 6.28
s164 - t164 + 6.19w164 <= 6.19
s27 - u27 + 5.38w27 <= 5.38
s69 - u69 + 5.40w69 <= 5.40
s185 - u185 + 5.35w185 <= 5.35
s58 - u58 + 5.69w58 <= 5.69
s74 - u74 + 5.67w74 <= 5.67
s2 - u2 + 5.47w2 <= 5.47
s43 - u43 + 5.54w43 <= 5.54
s160 - u160 + 5.66w160 <= 5.66
s124 - u124 + 4.81w124 <= 4.81
s17 - u17 + 6.26w17 <= 6.26
s23 - u23 + 6.22w23 <= 6.22
s67 - u67 + 6.28w67 <= 6.28
s164 - u164 + 6.19w164 <= 6.19
s27 - r27 + 5.38w27 <= 5.38
s69 - r69 + 5.40w69 <= 5.40
s185 - r185 + 5.35w185 <= 5.35
s58 - r58 + 5.69w58 <= 5.69
s74 - r74 + 5.67w74 <= 5.67
s2 - r2 + 5.47w2 <= 5.47
s43 - r43 + 5.54w43 <= 5.54
s160 - r160 + 5.66w160 <= 5.66
s124 - r124 + 4.81w124 <= 4.81
s17 - r17 + 6.26w17 <= 6.26
s23 - r23 + 6.22w23 <= 6.22
s67 - r67 + 6.28w67 <= 6.28
s164 - r164 + 6.19w164 <= 6.19

s27 - t27 - 5.38w27 >= -5.38
s69 - t69 - 5.40w69 >= -5.40
s185 - t185 - 5.35w185 >= -5.35
s58 - t58 - 5.69w58 >= -5.69
s74 - t74 - 5.67w74 >= -5.67
s2 - t2 - 5.47w2 >= -5.47
s43 - t43 - 5.54w43 >= -5.54
s160 - t160 - 5.66w160 >= -5.66
s124 - t124 - 4.81w124 >= -4.81
s17 - t17 - 6.26w17 >= -6.26
s23 - t23 - 6.22w23 >= -6.22
s67 - t67 - 6.28w67 >= -6.28
s164 - t164 - 6.19w164 >= -6.19


s27 - u27 - 5.38w27 >= -5.38
s69 - u69 - 5.40w69 >= -5.40
s185 - u185 - 5.35w185 >= -5.35
s58 - u58 - 5.69w58 >= -5.69
s74 - u74 - 5.67w74 >= -5.67
s2 - u2 - 5.47w2 >= -5.47
s43 - u43 - 5.54w43 >= -5.54
s160 - u160 - 5.66w160 >= -5.66
s124 - u124 - 4.81w124 >= -4.81
s17 - u17 - 20.00w17 >= -20.00
s23 - u23 - 20.00w23 >= -20.00
s67 - u67 - 20.00w67 >= -20.00
s164 - u164 - 20.00w164 >= -20.00


s27 - r27 - 5.38w27 >= -5.38
s69 - r69 - 5.40w69 >= -5.40
s185 - r185 - 5.35w185 >= -5.35
s58 - r58 - 5.69w58 >= -5.69
s74 - r74 - 5.67w74 >= -5.67
s2 - r2 - 5.47w2 >= -5.47
s43 - r43 - 5.54w43 >= -5.54
s160 - r160 - 5.66w160 >= -5.66
s124 - r124 - 4.81w124 >= -4.81
s17 - r17 - 20.00w17 >= -20.00
s23 - r23 - 20.00w23 >= -20.00
s67 - r67 - 20.00w67 >= -20.00
s164 - r164 - 20.00w164 >= -20.00


s17 + 6.26a27a17a1 <= 12.26
s17 + 6.26a69a17a1 <= 12.26
s17 + 6.26a185a17a1 <= 12.26
s17 + 6.26a185a17a2 <= 12.26
s17 + 6.26a58a17a1 <= 12.26
s17 + 6.26a58a17a2 <= 12.26
s17 + 6.26a74a17a1 <= 12.26
s17 + 6.26a74a17a2 <= 12.26
s17 + 6.26a2a17a1 <= 12.26
s17 + 6.26a43a17a2 <= 12.26
s17 + 6.26a124a17a2 <= 12.26
s17 + 6.26a164a17a1 <= 12.26
s23 + 6.22a27a23a3 <= 12.22
s23 + 6.22a69a23a3 <= 12.22
s23 + 6.22a2a23a3 <= 12.22
s23 + 6.22a160a23a3 <= 12.22
s23 + 6.22a124a23a3 <= 12.22
s67 + 6.28a27a67a1 <= 12.28
s67 + 6.28a69a67a1 <= 12.28
s67 + 6.28a185a67a1 <= 12.28
s67 + 6.28a185a67a2 <= 12.28
s67 + 6.28a58a67a1 <= 12.28
s67 + 6.28a58a67a2 <= 12.28
s67 + 6.28a74a67a1 <= 12.28
s67 + 6.28a74a67a2 <= 12.28
s67 + 6.28a2a67a1 <= 12.28
s67 + 6.28a43a67a2 <= 12.28
s67 + 6.28a124a67a2 <= 12.28
s67 + 6.28a164a67a1 <= 12.28
s164 + 6.19a27a164a1 <= 12.19
s164 + 6.19a69a164a1 <= 12.19
s164 + 6.19a185a164a1 <= 12.19
s164 + 6.19a58a164a1 <= 12.19
s164 + 6.19a74a164a1 <= 12.19
s164 + 6.19a2a164a1 <= 12.19




a27a17a1 + b27b17b1 <= 1
a69a17a1 + b69b17b1 <= 1
a185a17a1 + b185b17b1 <= 1
a185a17a2 + b185b17b2 <= 1
a58a17a1 + b58b17b1 <= 1
a58a17a2 + b58b17b2 <= 1
a74a17a1 + b74b17b1 <= 1
a74a17a2 + b74b17b2 <= 1
a2a17a1 + b2b17b1 <= 1
a43a17a2 + b43b17b2 <= 1
a124a17a2 + b124b17b2 <= 1
a164a17a1 + b164b17b1 <= 1
a27a23a3 + b27b23b3 <= 1
a69a23a3 + b69b23b3 <= 1
a2a23a3 + b2b23b3 <= 1
a160a23a3 + b160b23b3 <= 1
a124a23a3 + b124b23b3 <= 1
a27a67a1 + b27b67b1 <= 1
a69a67a1 + b69b67b1 <= 1
a185a67a1 + b185b67b1 <= 1
a185a67a2 + b185b67b2 <= 1
a58a67a1 + b58b67b1 <= 1
a58a67a2 + b58b67b2 <= 1
a74a67a1 + b74b67b1 <= 1
a74a67a2 + b74b67b2 <= 1
a2a67a1 + b2b67b1 <= 1
a43a67a2 + b43b67b2 <= 1
a124a67a2 + b124b67b2 <= 1
a164a67a1 + b164b67b1 <= 1
a27a164a1 + b27b164b1 <= 1
a69a164a1 + b69b164b1 <= 1
a185a164a1 + b185b164b1 <= 1
a58a164a1 + b58b164b1 <= 1
a74a164a1 + b74b164b1 <= 1
a2a164a1 + b2b164b1 <= 1


a27a17a1 + c27c17c1 <= 1
a69a17a1 + c69c17c1 <= 1
a185a17a1 + c185c17c1 <= 1
a185a17a2 + c185c17c2 <= 1
a58a17a1 + c58c17c1 <= 1
a58a17a2 + c58c17c2 <= 1
a74a17a1 + c74c17c1 <= 1
a74a17a2 + c74c17c2 <= 1
a2a17a1 + c2c17c1 <= 1
a43a17a2 + c43c17c2 <= 1
a124a17a2 + c124c17c2 <= 1
a164a17a1 + c164c17c1 <= 1
a27a23a3 + c27c23c3 <= 1
a69a23a3 + c69c23c3 <= 1
a2a23a3 + c2c23c3 <= 1
a160a23a3 + c160c23c3 <= 1
a124a23a3 + c124c23c3 <= 1
a27a67a1 + c27c67c1 <= 1
a69a67a1 + c69c67c1 <= 1
a185a67a1 + c185c67c1 <= 1
a185a67a2 + c185c67c2 <= 1
a58a67a1 + c58c67c1 <= 1
a58a67a2 + c58c67c2 <= 1
a74a67a1 + c74c67c1 <= 1
a74a67a2 + c74c67c2 <= 1
a2a67a1 + c2c67c1 <= 1
a43a67a2 + c43c67c2 <= 1
a124a67a2 + c124c67c2 <= 1
a164a67a1 + c164c67c1 <= 1
a27a164a1 + c27c164c1 <= 1
a69a164a1 + c69c164c1 <= 1
a185a164a1 + c185c164c1 <= 1
a58a164a1 + c58c164c1 <= 1
a74a164a1 + c74c164c1 <= 1
a2a164a1 + c2c164c1 <= 1


a27a17a1 + d27d17d1 <= 1
a69a17a1 + d69d17d1 <= 1
a185a17a1 + d185d17d1 <= 1
a185a17a2 + d185d17d2 <= 1
a58a17a1 + d58d17d1 <= 1
a58a17a2 + d58d17d2 <= 1
a74a17a1 + d74d17d1 <= 1
a74a17a2 + d74d17d2 <= 1
a2a17a1 + d2d17d1 <= 1
a43a17a2 + d43d17d2 <= 1
a124a17a2 + d124d17d2 <= 1
a164a17a1 + d164d17d1 <= 1
a27a23a3 + d27d23d3 <= 1
a69a23a3 + d69d23d3 <= 1
a2a23a3 + d2d23d3 <= 1
a160a23a3 + d160d23d3 <= 1
a124a23a3 + d124d23d3 <= 1
a27a67a1 + d27d67d1 <= 1
a69a67a1 + d69d67d1 <= 1
a185a67a1 + d185d67d1 <= 1
a185a67a2 + d185d67d2 <= 1
a58a67a1 + d58d67d1 <= 1
a58a67a2 + d58d67d2 <= 1
a74a67a1 + d74d67d1 <= 1
a74a67a2 + d74d67d2 <= 1
a2a67a1 + d2d67d1 <= 1
a43a67a2 + d43d67d2 <= 1
a124a67a2 + d124d67d2 <= 1
a164a67a1 + d164d67d1 <= 1
a27a164a1 + d27d164d1 <= 1
a69a164a1 + d69d164d1 <= 1
a185a164a1 + d185d164d1 <= 1
a58a164a1 + d58d164d1 <= 1
a74a164a1 + d74d164d1 <= 1
a2a164a1 + d2d164d1 <= 1

x27x17x1 - 1a27a17a1 <= 0
x27x23x3 - 2a27a23a3 <= 0
x27x67x1 - 1a27a67a1 <= 0
x27x164x1 - 2a27a164a1 <= 0
x69x17x1 - 1a69a17a1 <= 0
x69x23x3 - 2a69a23a3 <= 0
x69x67x1 - 1a69a67a1 <= 0
x69x164x1 - 2a69a164a1 <= 0
x185x17x1 - 1a185a17a1 <= 0
x185x17x2 - 1a185a17a2 <= 0
x185x67x1 - 1a185a67a1 <= 0
x185x67x2 - 1a185a67a2 <= 0
x185x164x1 - 2a185a164a1 <= 0
x58x17x1 - 1a58a17a1 <= 0
x58x17x2 - 1a58a17a2 <= 0
x58x67x1 - 1a58a67a1 <= 0
x58x67x2 - 1a58a67a2 <= 0
x58x164x1 - 2a58a164a1 <= 0
x74x17x1 - 1a74a17a1 <= 0
x74x17x2 - 1a74a17a2 <= 0
x74x67x1 - 1a74a67a1 <= 0
x74x67x2 - 1a74a67a2 <= 0
x74x164x1 - 2a74a164a1 <= 0
x2x17x1 - 1a2a17a1 <= 0
x2x23x3 - 2a2a23a3 <= 0
x2x67x1 - 1a2a67a1 <= 0
x2x164x1 - 2a2a164a1 <= 0
x43x17x2 - 1a43a17a2 <= 0
x43x67x2 - 1a43a67a2 <= 0
x160x23x3 - 2a160a23a3 <= 0
x124x17x2 - 1a124a17a2 <= 0
x124x23x3 - 2a124a23a3 <= 0
x124x67x2 - 1a124a67a2 <= 0
x164x17x1 - 1a164a17a1 <= 0
x164x67x1 - 1a164a67a1 <= 0
y27y17y1 - 1b27b17b1 <= 0
y27y23y3 - 2b27b23b3 <= 0
y27y67y1 - 1b27b67b1 <= 0
y27y164y1 - 2b27b164b1 <= 0
y69y17y1 - 1b69b17b1 <= 0
y69y23y3 - 2b69b23b3 <= 0
y69y67y1 - 1b69b67b1 <= 0
y69y164y1 - 2b69b164b1 <= 0
y185y17y1 - 1b185b17b1 <= 0
y185y17y2 - 1b185b17b2 <= 0
y185y67y1 - 1b185b67b1 <= 0
y185y67y2 - 1b185b67b2 <= 0
y185y164y1 - 2b185b164b1 <= 0
y58y17y1 - 1b58b17b1 <= 0
y58y17y2 - 1b58b17b2 <= 0
y58y67y1 - 1b58b67b1 <= 0
y58y67y2 - 1b58b67b2 <= 0
y58y164y1 - 2b58b164b1 <= 0
y74y17y1 - 1b74b17b1 <= 0
y74y17y2 - 1b74b17b2 <= 0
y74y67y1 - 1b74b67b1 <= 0
y74y67y2 - 1b74b67b2 <= 0
y74y164y1 - 2b74b164b1 <= 0
y2y17y1 - 1b2b17b1 <= 0
y2y23y3 - 2b2b23b3 <= 0
y2y67y1 - 1b2b67b1 <= 0
y2y164y1 - 2b2b164b1 <= 0
y43y17y2 - 1b43b17b2 <= 0
y43y67y2 - 1b43b67b2 <= 0
y160y23y3 - 2b160b23b3 <= 0
y124y17y2 - 1b124b17b2 <= 0
y124y23y3 - 2b124b23b3 <= 0
y124y67y2 - 1b124b67b2 <= 0
y164y17y1 - 1b164b17b1 <= 0
y164y67y1 - 1b164b67b1 <= 0

Bounds
s27 = 5.377585
t27 = 5.377585
u27 = 5.377585
r27 = 5.377585
s69 = 5.397830
t69 = 5.397830
u69 = 5.397830
r69 = 5.397830
s185 = 5.352605
t185 = 5.352605
u185 = 5.352605
r185 = 5.352605
s58 = 5.694874
t58 = 5.694874
u58 = 5.694874
r58 = 5.694874
s74 = 5.673176
t74 = 5.673176
u74 = 5.673176
r74 = 5.673176
s2 = 5.467986
t2 = 5.467986
u2 = 5.467986
r2 = 5.467986
s43 = 5.537944
t43 = 5.537944
u43 = 5.537944
r43 = 5.537944
s160 = 5.656582
t160 = 5.656582
u160 = 5.656582
r160 = 5.656582
s124 = 4.814453
t124 = 4.814453
u124 = 4.814453
r124 = 4.814453
5.26 <= s17 <= 6.26
5.22 <= s23 <= 6.22
5.28 <= s67 <= 6.28
5.19 <= s164 <= 6.19

5.26 <= t17 <= 6.26
5.22 <= t23 <= 6.22
5.28 <= t67 <= 6.28
5.19 <= t164 <= 6.19

0.00 <= u17 <= 20.00
0.00 <= u23 <= 20.00
0.00 <= u67 <= 20.00
0.00 <= u164 <= 20.00

0.00 <= r17 <= 20.00
0.00 <= r23 <= 20.00
0.00 <= r67 <= 20.00
0.00 <= r164 <= 20.00

General
x27x17x1 x27x23x3 x27x67x1 x27x164x1 
x69x17x1 x69x23x3 x69x67x1 x69x164x1 
x185x17x1 x185x17x2 x185x67x1 x185x67x2 x185x164x1 
x58x17x1 x58x17x2 x58x67x1 x58x67x2 x58x164x1 
x74x17x1 x74x17x2 x74x67x1 x74x67x2 x74x164x1 
x2x17x1 x2x23x3 x2x67x1 x2x164x1 
x43x17x2 x43x67x2 
x160x23x3 
x124x17x2 x124x23x3 x124x67x2 
x164x17x1 x164x67x1 

y27y17y1 y27y23y3 y27y67y1 y27y164y1 
y69y17y1 y69y23y3 y69y67y1 y69y164y1 
y185y17y1 y185y17y2 y185y67y1 y185y67y2 y185y164y1 
y58y17y1 y58y17y2 y58y67y1 y58y67y2 y58y164y1 
y74y17y1 y74y17y2 y74y67y1 y74y67y2 y74y164y1 
y2y17y1 y2y23y3 y2y67y1 y2y164y1 
y43y17y2 y43y67y2 
y160y23y3 
y124y17y2 y124y23y3 y124y67y2 
y164y17y1 y164y67y1 



Binaries
X17 X23 X67 X164 
Y17 Y23 Y67 Y164 



w17 w23 w67 w164 

a27a17a1 a27a23a3 a27a67a1 a27a164a1 
a69a17a1 a69a23a3 a69a67a1 a69a164a1 
a185a17a1 a185a17a2 a185a67a1 a185a67a2 a185a164a1 
a58a17a1 a58a17a2 a58a67a1 a58a67a2 a58a164a1 
a74a17a1 a74a17a2 a74a67a1 a74a67a2 a74a164a1 
a2a17a1 a2a23a3 a2a67a1 a2a164a1 
a43a17a2 a43a67a2 
a160a23a3 
a124a17a2 a124a23a3 a124a67a2 
a164a17a1 a164a67a1 

b27b17b1 b27b23b3 b27b67b1 b27b164b1 
b69b17b1 b69b23b3 b69b67b1 b69b164b1 
b185b17b1 b185b17b2 b185b67b1 b185b67b2 b185b164b1 
b58b17b1 b58b17b2 b58b67b1 b58b67b2 b58b164b1 
b74b17b1 b74b17b2 b74b67b1 b74b67b2 b74b164b1 
b2b17b1 b2b23b3 b2b67b1 b2b164b1 
b43b17b2 b43b67b2 
b160b23b3 
b124b17b2 b124b23b3 b124b67b2 
b164b17b1 b164b67b1 



End